networks/zoo_146_3979/lower/zoo_146_3979-lower.txt
Number of groups: 89
Flow 19: {64 63 0} {63 59 0} {59 26 0} {26 25 0} {25 24 0} 
Flow 49: {1 2 0} {2 4 0} {4 11 0} {11 55 0} {55 130 0} 
Flow 62: {67 68 0} 
Flow 161: {63 53 0} {53 65 0} {65 67 0} 
Flow 206: {2 7 0} {7 52 0} {52 58 0} {58 57 0} 
Flow 224: {5 6 0} {6 81 0} 
Flow 273: {6 11 0} {11 33 0} {33 59 0} {59 18 0} {18 93 0} 
Flow 345: {58 56 0} {56 50 0} {50 31 0} {31 106 0} 
Flow 448: {8 7 0} {7 53 0} {53 63 0} {63 71 0} {71 146 0} 
Flow 477: {9 10 0} {10 28 0} {28 47 0} {47 43 0} {43 118 0} 
Flow 482: {16 61 0} {61 49 0} {49 124 0} 
Flow 575: {13 14 0} {14 89 0} 
Flow 687: {12 68 0} {68 65 0} {65 140 0} 
Flow 742: {14 13 0} {13 69 0} {69 28 0} {28 41 0} {41 40 0} 
Flow 785: {15 37 0} {37 61 0} {61 47 0} {47 45 0} {45 120 0} 
Flow 802: {69 47 0} {47 33 0} {33 11 0} {11 6 0} {6 8 0} {8 83 0} 
Flow 839: {50 125 0} 
Flow 886: {17 26 0} {26 40 0} {40 115 0} 
Flow 890: {17 18 0} {18 44 0} {44 119 0} 
Flow 990: {21 23 0} {23 24 0} {24 99 0} 
Flow 1013: {20 50 0} {50 56 0} {56 58 0} 
Flow 1103: {22 21 0} {21 19 0} {19 94 0} 
Flow 1156: {28 103 0} 
Flow 1212: {23 21 0} {21 96 0} 
Flow 1214: {24 23 0} {23 98 0} 
Flow 1225: {24 25 0} {25 26 0} {26 38 0} 
Flow 1325: {19 50 0} {50 20 0} {20 95 0} 
Flow 1330: {25 100 0} 
Flow 1406: {27 51 0} {51 26 0} {26 61 0} {61 37 0} {37 36 0} {36 111 0} 
Flow 1534: {29 34 0} 
Flow 1583: {30 18 0} {18 17 0} {17 92 0} 
Flow 1644: {31 50 0} {50 19 0} {19 21 0} {21 26 0} {26 101 0} 
Flow 1690: {32 27 0} {27 102 0} 
Flow 1809: {34 41 0} {41 38 0} {38 113 0} 
Flow 1813: {34 29 0} {29 42 0} {42 117 0} 
Flow 1848: {35 69 0} {69 16 0} {16 15 0} {15 90 0} 
Flow 1873: {35 13 0} {13 47 0} {47 48 0} {48 123 0} 
Flow 1891: {65 68 0} {68 143 0} 
Flow 1895: {49 39 0} {39 18 0} {18 59 0} {59 63 0} {63 64 0} {64 1 0} {1 76 0} 
Flow 1918: {36 49 0} {49 61 0} {61 16 0} {16 28 0} {28 29 0} {29 104 0} 
Flow 1989: {37 15 0} {15 16 0} {16 69 0} {69 35 0} {35 110 0} 
Flow 2032: {10 9 0} {9 84 0} 
Flow 2058: {38 41 0} {41 42 0} 
Flow 2067: {38 26 0} {26 51 0} {51 126 0} 
Flow 2116: {39 49 0} {49 36 0} {36 37 0} {37 112 0} 
Flow 2171: {40 26 0} {26 59 0} {59 47 0} {47 122 0} 
Flow 2177: {40 41 0} {41 56 0} {56 131 0} 
Flow 2240: {42 29 0} {29 28 0} {28 69 0} {69 13 0} {13 88 0} 
Flow 2247: {42 41 0} {41 59 0} {59 134 0} 
Flow 2261: {47 28 0} {28 16 0} {16 91 0} 
Flow 2309: {43 46 0} {46 59 0} {59 70 0} {70 145 0} 
Flow 2359: {44 59 0} {59 58 0} {58 133 0} 
Flow 2362: {44 18 0} {18 30 0} {30 61 0} {61 136 0} 
Flow 2363: {18 26 0} {26 32 0} {32 62 0} {62 137 0} 
Flow 2405: {45 48 0} 
Flow 2422: {45 47 0} {47 69 0} {69 144 0} 
Flow 2451: {46 43 0} {43 47 0} {47 13 0} {13 35 0} 
Flow 2552: {4 79 0} 
Flow 2573: {48 45 0} {45 33 0} {33 108 0} 
Flow 2593: {48 47 0} {47 59 0} {59 56 0} {56 57 0} {57 132 0} 
Flow 2629: {61 26 0} {26 41 0} {41 34 0} {34 109 0} 
Flow 2776: {51 27 0} {27 62 0} {62 60 0} {60 135 0} 
Flow 2842: {3 63 0} {63 138 0} 
Flow 2852: {53 7 0} {7 2 0} {2 77 0} 
Flow 2940: {52 59 0} {59 46 0} {46 121 0} 
Flow 2948: {54 55 0} 
Flow 2958: {54 7 0} {7 11 0} {11 67 0} {67 66 0} {66 141 0} 
Flow 3002: {55 54 0} 
Flow 3010: {55 11 0} {11 4 0} {4 2 0} {2 1 0} {1 64 0} {64 139 0} 
Flow 3032: {41 26 0} {26 17 0} 
Flow 3086: {57 58 0} {58 52 0} {52 3 0} {3 78 0} 
Flow 3104: {57 56 0} {56 27 0} {27 32 0} {32 107 0} 
Flow 3141: {7 8 0} {8 6 0} {6 5 0} {5 80 0} 
Flow 3146: {56 41 0} {41 28 0} {28 10 0} {10 85 0} 
Flow 3176: {58 59 0} {59 44 0} 
Flow 3299: {60 62 0} {62 32 0} {32 26 0} {26 18 0} {18 39 0} {39 114 0} 
Flow 3409: {26 21 0} {21 22 0} {22 97 0} 
Flow 3447: {62 27 0} {27 56 0} {56 59 0} {59 33 0} {33 65 0} {65 66 0} 
Flow 3632: {66 67 0} {67 11 0} {11 86 0} 
Flow 3640: {66 65 0} {65 33 0} {33 47 0} {47 61 0} {61 30 0} {30 105 0} 
Flow 3647: {59 41 0} {41 116 0} 
Flow 3716: {67 65 0} {65 53 0} {53 128 0} 
Flow 3779: {68 12 0} {12 11 0} {11 7 0} {7 54 0} {54 129 0} 
Flow 3791: {68 67 0} {67 142 0} 
Flow 3866: {70 59 0} {59 52 0} {52 7 0} {7 82 0} 
Flow 3895: {33 45 0} 
Flow 3917: {70 71 0} 
Flow 3962: {71 63 0} {63 3 0} {3 52 0} {52 127 0} 
Flow 3979: {71 70 0} 
Time taken running everything: 35 seconds
