networks/zoo_146_3979/lower/zoo_146_3979-lower.sol
<?xml version = "1.0" encoding="UTF-8" standalone="yes"?>
<CPLEXSolution version="1.2">
 <header
   problemName="networks/zoo_146_3979/zoo_146_3979-lower.lp"
   solutionName="incumbent"
   solutionIndex="-1"
   objectiveValue="89"
   solutionTypeValue="3"
   solutionTypeString="primal"
   solutionStatusValue="101"
   solutionStatusString="integer optimal solution"
   solutionMethodString="mip"
   primalFeasible="1"
   dualFeasible="1"
   MIPNodes="0"
   MIPIterations="333"
   writeLevel="3"/>
 <quality
   epInt="1.0000000000000001e-05"
   epRHS="9.9999999999999995e-07"
   maxIntInfeas="0"
   maxPrimalInfeas="0"
   maxX="1"
   maxSlack="1"/>
 <variables>
  <variable name="Y(19,25)" index="2562" value="1"/>
  <variable name="Y(49,55)" index="6822" value="1"/>
  <variable name="Y(62,67)" index="8667" value="1"/>
  <variable name="Y(161,65)" index="22624" value="1"/>
  <variable name="Y(206,58)" index="28962" value="1"/>
  <variable name="Y(224,6)" index="31448" value="1"/>
  <variable name="Y(273,18)" index="38369" value="1"/>
  <variable name="Y(345,31)" index="48534" value="1"/>
  <variable name="Y(448,71)" index="63097" value="1"/>
  <variable name="Y(477,43)" index="67158" value="1"/>
  <variable name="Y(482,49)" index="67869" value="1"/>
  <variable name="Y(575,14)" index="80947" value="1"/>
  <variable name="Y(687,65)" index="96790" value="1"/>
  <variable name="Y(742,41)" index="104521" value="1"/>
  <variable name="Y(785,45)" index="110588" value="1"/>
  <variable name="Y(802,8)" index="112948" value="1"/>
  <variable name="Y(839,50)" index="118207" value="1"/>
  <variable name="Y(886,40)" index="124824" value="1"/>
  <variable name="Y(890,44)" index="125392" value="1"/>
  <variable name="Y(990,24)" index="139472" value="1"/>
  <variable name="Y(1013,56)" index="142747" value="1"/>
  <variable name="Y(1103,19)" index="155400" value="1"/>
  <variable name="Y(1156,28)" index="162882" value="1"/>
  <variable name="Y(1212,21)" index="170771" value="1"/>
  <variable name="Y(1214,23)" index="171055" value="1"/>
  <variable name="Y(1225,26)" index="172609" value="1"/>
  <variable name="Y(1325,20)" index="186703" value="1"/>
  <variable name="Y(1330,25)" index="187413" value="1"/>
  <variable name="Y(1406,36)" index="198140" value="1"/>
  <variable name="Y(1534,29)" index="216181" value="1"/>
  <variable name="Y(1583,17)" index="223078" value="1"/>
  <variable name="Y(1644,26)" index="231688" value="1"/>
  <variable name="Y(1690,27)" index="238175" value="1"/>
  <variable name="Y(1809,38)" index="254965" value="1"/>
  <variable name="Y(1813,42)" index="255533" value="1"/>
  <variable name="Y(1848,15)" index="260441" value="1"/>
  <variable name="Y(1873,48)" index="263999" value="1"/>
  <variable name="Y(1891,68)" index="266557" value="1"/>
  <variable name="Y(1895,1)" index="267054" value="1"/>
  <variable name="Y(1918,29)" index="270325" value="1"/>
  <variable name="Y(1989,35)" index="280342" value="1"/>
  <variable name="Y(2032,9)" index="286379" value="1"/>
  <variable name="Y(2058,41)" index="290077" value="1"/>
  <variable name="Y(2067,51)" index="291356" value="1"/>
  <variable name="Y(2116,37)" index="298251" value="1"/>
  <variable name="Y(2171,47)" index="306016" value="1"/>
  <variable name="Y(2177,56)" index="306871" value="1"/>
  <variable name="Y(2240,13)" index="315711" value="1"/>
  <variable name="Y(2247,59)" index="316744" value="1"/>
  <variable name="Y(2261,16)" index="318675" value="1"/>
  <variable name="Y(2309,70)" index="325497" value="1"/>
  <variable name="Y(2359,58)" index="332535" value="1"/>
  <variable name="Y(2362,61)" index="332961" value="1"/>
  <variable name="Y(2363,62)" index="333103" value="1"/>
  <variable name="Y(2405,45)" index="339008" value="1"/>
  <variable name="Y(2422,69)" index="341429" value="1"/>
  <variable name="Y(2451,13)" index="345462" value="1"/>
  <variable name="Y(2552,4)" index="359694" value="1"/>
  <variable name="Y(2573,33)" index="362684" value="1"/>
  <variable name="Y(2593,57)" index="365528" value="1"/>
  <variable name="Y(2629,34)" index="370581" value="1"/>
  <variable name="Y(2776,60)" index="391334" value="1"/>
  <variable name="Y(2842,63)" index="400643" value="1"/>
  <variable name="Y(2852,2)" index="401992" value="1"/>
  <variable name="Y(2940,46)" index="414444" value="1"/>
  <variable name="Y(2948,54)" index="415580" value="1"/>
  <variable name="Y(2958,66)" index="417002" value="1"/>
  <variable name="Y(3002,55)" index="423195" value="1"/>
  <variable name="Y(3010,64)" index="424332" value="1"/>
  <variable name="Y(3032,26)" index="427396" value="1"/>
  <variable name="Y(3086,3)" index="434987" value="1"/>
  <variable name="Y(3104,32)" index="437554" value="1"/>
  <variable name="Y(3141,5)" index="442744" value="1"/>
  <variable name="Y(3146,10)" index="443454" value="1"/>
  <variable name="Y(3176,59)" index="447733" value="1"/>
  <variable name="Y(3299,39)" index="465056" value="1"/>
  <variable name="Y(3409,22)" index="480549" value="1"/>
  <variable name="Y(3447,65)" index="485950" value="1"/>
  <variable name="Y(3632,11)" index="511981" value="1"/>
  <variable name="Y(3640,30)" index="513128" value="1"/>
  <variable name="Y(3647,41)" index="514126" value="1"/>
  <variable name="Y(3716,53)" index="523867" value="1"/>
  <variable name="Y(3779,54)" index="532751" value="1"/>
  <variable name="Y(3791,67)" index="534456" value="1"/>
  <variable name="Y(3866,7)" index="544971" value="1"/>
  <variable name="Y(3895,33)" index="549086" value="1"/>
  <variable name="Y(3917,70)" index="552225" value="1"/>
  <variable name="Y(3962,52)" index="558552" value="1"/>
  <variable name="Y(3979,71)" index="560968" value="1"/>
  <variable name="X(1,2,49)" index="561087" value="1"/>
  <variable name="X(1,64,3010)" index="568027" value="1"/>
  <variable name="X(1,76,1895)" index="570891" value="1"/>
  <variable name="X(2,1,3010)" index="575985" value="1"/>
  <variable name="X(2,4,49)" index="577003" value="1"/>
  <variable name="X(2,7,206)" index="581139" value="1"/>
  <variable name="X(2,77,2852)" index="587764" value="1"/>
  <variable name="X(3,52,3962)" index="592853" value="1"/>
  <variable name="X(3,63,2842)" index="595712" value="1"/>
  <variable name="X(3,78,3086)" index="599935" value="1"/>
  <variable name="X(4,2,3010)" index="603838" value="1"/>
  <variable name="X(4,11,49)" index="604856" value="1"/>
  <variable name="X(4,79,2552)" index="611338" value="1"/>
  <variable name="X(5,6,224)" index="612989" value="1"/>
  <variable name="X(5,80,3141)" index="619885" value="1"/>
  <variable name="X(6,5,3141)" index="623864" value="1"/>
  <variable name="X(6,8,802)" index="625504" value="1"/>
  <variable name="X(6,11,273)" index="628954" value="1"/>
  <variable name="X(6,81,224)" index="632884" value="1"/>
  <variable name="X(7,2,2852)" index="639491" value="1"/>
  <variable name="X(7,8,3141)" index="643759" value="1"/>
  <variable name="X(7,11,2958)" index="647555" value="1"/>
  <variable name="X(7,52,206)" index="648782" value="1"/>
  <variable name="X(7,53,448)" index="653003" value="1"/>
  <variable name="X(7,54,3779)" index="660313" value="1"/>
  <variable name="X(7,82,3866)" index="664379" value="1"/>
  <variable name="X(8,6,3141)" index="667633" value="1"/>
  <variable name="X(8,7,448)" index="668919" value="1"/>
  <variable name="X(8,83,802)" index="673252" value="1"/>
  <variable name="X(9,10,477)" index="676906" value="1"/>
  <variable name="X(9,84,2032)" index="682440" value="1"/>
  <variable name="X(10,9,2032)" index="686419" value="1"/>
  <variable name="X(10,28,477)" index="688843" value="1"/>
  <variable name="X(10,85,3146)" index="695491" value="1"/>
  <variable name="X(11,4,3010)" index="699334" value="1"/>
  <variable name="X(11,6,802)" index="701105" value="1"/>
  <variable name="X(11,7,3779)" index="708061" value="1"/>
  <variable name="X(11,33,273)" index="708534" value="1"/>
  <variable name="X(11,55,49)" index="712289" value="1"/>
  <variable name="X(11,67,2958)" index="719177" value="1"/>
  <variable name="X(11,86,3632)" index="723830" value="1"/>
  <variable name="X(12,11,3779)" index="727956" value="1"/>
  <variable name="X(12,68,687)" index="728843" value="1"/>
  <variable name="X(13,14,575)" index="732710" value="1"/>
  <variable name="X(13,35,2451)" index="738565" value="1"/>
  <variable name="X(13,47,1873)" index="741966" value="1"/>
  <variable name="X(13,69,742)" index="744814" value="1"/>
  <variable name="X(13,88,2240)" index="750291" value="1"/>
  <variable name="X(14,13,742)" index="752772" value="1"/>
  <variable name="X(14,89,575)" index="756584" value="1"/>
  <variable name="X(15,16,1989)" index="761977" value="1"/>
  <variable name="X(15,37,785)" index="764752" value="1"/>
  <variable name="X(15,90,1848)" index="769794" value="1"/>
  <variable name="X(16,15,1848)" index="773773" value="1"/>
  <variable name="X(16,28,1918)" index="777822" value="1"/>
  <variable name="X(16,61,482)" index="780365" value="1"/>
  <variable name="X(16,69,1989)" index="785851" value="1"/>
  <variable name="X(16,91,2261)" index="790102" value="1"/>
  <variable name="X(17,18,890)" index="792710" value="1"/>
  <variable name="X(17,26,886)" index="796685" value="1"/>
  <variable name="X(17,92,1583)" index="801361" value="1"/>
  <variable name="X(18,17,1583)" index="805340" value="1"/>
  <variable name="X(18,26,2363)" index="810099" value="1"/>
  <variable name="X(18,30,2362)" index="814077" value="1"/>
  <variable name="X(18,39,3299)" index="818993" value="1"/>
  <variable name="X(18,44,890)" index="820563" value="1"/>
  <variable name="X(18,59,1895)" index="825547" value="1"/>
  <variable name="X(18,93,273)" index="827904" value="1"/>
  <variable name="X(19,21,1644)" index="833254" value="1"/>
  <variable name="X(19,50,1325)" index="836914" value="1"/>
  <variable name="X(19,94,1103)" index="840671" value="1"/>
  <variable name="X(20,50,1013)" index="844560" value="1"/>
  <variable name="X(20,95,1325)" index="848851" value="1"/>
  <variable name="X(21,19,1103)" index="852608" value="1"/>
  <variable name="X(21,22,3409)" index="858893" value="1"/>
  <variable name="X(21,23,990)" index="860453" value="1"/>
  <variable name="X(21,26,1644)" index="865086" value="1"/>
  <variable name="X(21,96,1212)" index="868633" value="1"/>
  <variable name="X(22,21,1103)" index="872503" value="1"/>
  <variable name="X(22,97,3409)" index="878788" value="1"/>
  <variable name="X(23,21,1212)" index="880570" value="1"/>
  <variable name="X(23,24,990)" index="884327" value="1"/>
  <variable name="X(23,98,1214)" index="888530" value="1"/>
  <variable name="X(24,23,1214)" index="892509" value="1"/>
  <variable name="X(24,25,1225)" index="896499" value="1"/>
  <variable name="X(24,99,990)" index="900243" value="1"/>
  <variable name="X(25,24,19)" index="903251" value="1"/>
  <variable name="X(25,26,1225)" index="908436" value="1"/>
  <variable name="X(25,100,1330)" index="912520" value="1"/>
  <variable name="X(26,17,3032)" index="918201" value="1"/>
  <variable name="X(26,18,3299)" index="922447" value="1"/>
  <variable name="X(26,21,3409)" index="926536" value="1"/>
  <variable name="X(26,25,19)" index="927125" value="1"/>
  <variable name="X(26,32,2363)" index="933448" value="1"/>
  <variable name="X(26,38,1225)" index="936289" value="1"/>
  <variable name="X(26,40,886)" index="939929" value="1"/>
  <variable name="X(26,41,2629)" index="945651" value="1"/>
  <variable name="X(26,51,2067)" index="949068" value="1"/>
  <variable name="X(26,59,2171)" index="953151" value="1"/>
  <variable name="X(26,61,1406)" index="956365" value="1"/>
  <variable name="X(26,101,1644)" index="960582" value="1"/>
  <variable name="X(27,32,3104)" index="966021" value="1"/>
  <variable name="X(27,51,1406)" index="968302" value="1"/>
  <variable name="X(27,56,3447)" index="974322" value="1"/>
  <variable name="X(27,62,2776)" index="977630" value="1"/>
  <variable name="X(27,102,1690)" index="980523" value="1"/>
  <variable name="X(28,10,3146)" index="985958" value="1"/>
  <variable name="X(28,16,2261)" index="989052" value="1"/>
  <variable name="X(28,29,1918)" index="992688" value="1"/>
  <variable name="X(28,41,742)" index="995491" value="1"/>
  <variable name="X(28,47,477)" index="999205" value="1"/>
  <variable name="X(28,69,2240)" index="1004947" value="1"/>
  <variable name="X(28,103,1156)" index="1007842" value="1"/>
  <variable name="X(29,28,2240)" index="1012905" value="1"/>
  <variable name="X(29,34,1534)" index="1016178" value="1"/>
  <variable name="X(29,42,1813)" index="1020436" value="1"/>
  <variable name="X(29,104,1918)" index="1024520" value="1"/>
  <variable name="X(30,18,1583)" index="1028164" value="1"/>
  <variable name="X(30,61,2362)" index="1032922" value="1"/>
  <variable name="X(30,105,3640)" index="1038179" value="1"/>
  <variable name="X(31,50,1644)" index="1040162" value="1"/>
  <variable name="X(31,106,345)" index="1042842" value="1"/>
  <variable name="X(32,26,3299)" index="1049775" value="1"/>
  <variable name="X(32,27,1690)" index="1052145" value="1"/>
  <variable name="X(32,62,2363)" index="1056797" value="1"/>
  <variable name="X(32,107,3104)" index="1061517" value="1"/>
  <variable name="X(33,11,802)" index="1063194" value="1"/>
  <variable name="X(33,45,3895)" index="1070266" value="1"/>
  <variable name="X(33,47,3640)" index="1073990" value="1"/>
  <variable name="X(33,59,273)" index="1074602" value="1"/>
  <variable name="X(33,65,3447)" index="1081755" value="1"/>
  <variable name="X(33,108,2573)" index="1084860" value="1"/>
  <variable name="X(34,29,1813)" index="1088079" value="1"/>
  <variable name="X(34,41,1809)" index="1092054" value="1"/>
  <variable name="X(34,109,2629)" index="1096853" value="1"/>
  <variable name="X(35,13,1873)" index="1100076" value="1"/>
  <variable name="X(35,69,1848)" index="1104030" value="1"/>
  <variable name="X(35,110,1989)" index="1108150" value="1"/>
  <variable name="X(36,37,2116)" index="1112256" value="1"/>
  <variable name="X(36,49,1918)" index="1116037" value="1"/>
  <variable name="X(36,111,1406)" index="1119504" value="1"/>
  <variable name="X(37,15,1989)" index="1124066" value="1"/>
  <variable name="X(37,36,1406)" index="1127462" value="1"/>
  <variable name="X(37,61,785)" index="1130820" value="1"/>
  <variable name="X(37,112,2116)" index="1136130" value="1"/>
  <variable name="X(38,26,2067)" index="1140060" value="1"/>
  <variable name="X(38,41,2058)" index="1144030" value="1"/>
  <variable name="X(38,113,1809)" index="1147760" value="1"/>
  <variable name="X(39,18,1895)" index="1151825" value="1"/>
  <variable name="X(39,49,2116)" index="1156025" value="1"/>
  <variable name="X(39,114,3299)" index="1161187" value="1"/>
  <variable name="X(40,26,2171)" index="1164038" value="1"/>
  <variable name="X(40,41,2177)" index="1168023" value="1"/>
  <variable name="X(40,115,886)" index="1170711" value="1"/>
  <variable name="X(41,26,3032)" index="1176836" value="1"/>
  <variable name="X(41,28,3146)" index="1180929" value="1"/>
  <variable name="X(41,34,2629)" index="1184391" value="1"/>
  <variable name="X(41,38,1809)" index="1187550" value="1"/>
  <variable name="X(41,40,742)" index="1190462" value="1"/>
  <variable name="X(41,42,2058)" index="1195757" value="1"/>
  <variable name="X(41,56,2177)" index="1199855" value="1"/>
  <variable name="X(41,59,2247)" index="1203904" value="1"/>
  <variable name="X(41,116,3647)" index="1209283" value="1"/>
  <variable name="X(42,29,2240)" index="1211855" value="1"/>
  <variable name="X(42,41,2247)" index="1215841" value="1"/>
  <variable name="X(42,117,1813)" index="1219386" value="1"/>
  <variable name="X(43,46,2309)" index="1223861" value="1"/>
  <variable name="X(43,47,2451)" index="1227982" value="1"/>
  <variable name="X(43,118,477)" index="1229987" value="1"/>
  <variable name="X(44,18,2362)" index="1235851" value="1"/>
  <variable name="X(44,59,2359)" index="1239827" value="1"/>
  <variable name="X(44,119,890)" index="1242337" value="1"/>
  <variable name="X(45,33,2573)" index="1247999" value="1"/>
  <variable name="X(45,47,2422)" index="1251827" value="1"/>
  <variable name="X(45,48,2405)" index="1255789" value="1"/>
  <variable name="X(45,120,785)" index="1258148" value="1"/>
  <variable name="X(46,43,2451)" index="1263793" value="1"/>
  <variable name="X(46,59,2309)" index="1267630" value="1"/>
  <variable name="X(46,121,2940)" index="1272240" value="1"/>
  <variable name="X(47,13,2451)" index="1275730" value="1"/>
  <variable name="X(47,28,2261)" index="1279519" value="1"/>
  <variable name="X(47,33,802)" index="1282039" value="1"/>
  <variable name="X(47,43,477)" index="1285693" value="1"/>
  <variable name="X(47,45,785)" index="1289980" value="1"/>
  <variable name="X(47,48,1873)" index="1295047" value="1"/>
  <variable name="X(47,59,2593)" index="1299746" value="1"/>
  <variable name="X(47,61,3640)" index="1304772" value="1"/>
  <variable name="X(47,69,2422)" index="1307533" value="1"/>
  <variable name="X(47,122,2171)" index="1311261" value="1"/>
  <variable name="X(48,45,2573)" index="1315642" value="1"/>
  <variable name="X(48,47,2593)" index="1319641" value="1"/>
  <variable name="X(48,123,1873)" index="1322900" value="1"/>
  <variable name="X(49,36,2116)" index="1327122" value="1"/>
  <variable name="X(49,39,1895)" index="1330880" value="1"/>
  <variable name="X(49,61,1918)" index="1334882" value="1"/>
  <variable name="X(49,124,482)" index="1337425" value="1"/>
  <variable name="X(50,19,1644)" index="1342566" value="1"/>
  <variable name="X(50,20,1325)" index="1346226" value="1"/>
  <variable name="X(50,31,345)" index="1349225" value="1"/>
  <variable name="X(50,56,1013)" index="1353872" value="1"/>
  <variable name="X(50,125,839)" index="1357677" value="1"/>
  <variable name="X(51,26,1406)" index="1362223" value="1"/>
  <variable name="X(51,27,2776)" index="1367572" value="1"/>
  <variable name="X(51,126,2067)" index="1370842" value="1"/>
  <variable name="X(52,3,3086)" index="1375840" value="1"/>
  <variable name="X(52,7,3866)" index="1380599" value="1"/>
  <variable name="X(52,58,206)" index="1380918" value="1"/>
  <variable name="X(52,59,2940)" index="1387631" value="1"/>
  <variable name="X(52,127,3962)" index="1392632" value="1"/>
  <variable name="X(53,7,2852)" index="1395501" value="1"/>
  <variable name="X(53,63,448)" index="1397076" value="1"/>
  <variable name="X(53,65,161)" index="1400768" value="1"/>
  <variable name="X(53,128,3716)" index="1408302" value="1"/>
  <variable name="X(54,7,2958)" index="1411523" value="1"/>
  <variable name="X(54,55,2948)" index="1415492" value="1"/>
  <variable name="X(54,129,3779)" index="1420302" value="1"/>
  <variable name="X(55,11,3010)" index="1423512" value="1"/>
  <variable name="X(55,54,3002)" index="1427483" value="1"/>
  <variable name="X(55,130,49)" index="1428509" value="1"/>
  <variable name="X(56,27,3104)" index="1435543" value="1"/>
  <variable name="X(56,41,3146)" index="1439564" value="1"/>
  <variable name="X(56,50,345)" index="1440742" value="1"/>
  <variable name="X(56,57,2593)" index="1446969" value="1"/>
  <variable name="X(56,58,1013)" index="1449368" value="1"/>
  <variable name="X(56,59,3447)" index="1455781" value="1"/>
  <variable name="X(56,131,2177)" index="1458490" value="1"/>
  <variable name="X(57,56,3104)" index="1463396" value="1"/>
  <variable name="X(57,58,3086)" index="1467357" value="1"/>
  <variable name="X(57,132,2593)" index="1470843" value="1"/>
  <variable name="X(58,52,3086)" index="1475315" value="1"/>
  <variable name="X(58,56,345)" index="1476553" value="1"/>
  <variable name="X(58,57,206)" index="1480393" value="1"/>
  <variable name="X(58,59,3176)" index="1487342" value="1"/>
  <variable name="X(58,133,2359)" index="1490504" value="1"/>
  <variable name="X(59,18,273)" index="1492397" value="1"/>
  <variable name="X(59,26,19)" index="1496122" value="1"/>
  <variable name="X(59,33,3447)" index="1503529" value="1"/>
  <variable name="X(59,41,3647)" index="1507708" value="1"/>
  <variable name="X(59,44,3176)" index="1511216" value="1"/>
  <variable name="X(59,46,2940)" index="1514959" value="1"/>
  <variable name="X(59,47,2171)" index="1518169" value="1"/>
  <variable name="X(59,52,3866)" index="1523843" value="1"/>
  <variable name="X(59,56,2593)" index="1526549" value="1"/>
  <variable name="X(59,58,2359)" index="1530294" value="1"/>
  <variable name="X(59,63,1895)" index="1533809" value="1"/>
  <variable name="X(59,70,2309)" index="1538202" value="1"/>
  <variable name="X(59,134,2247)" index="1542119" value="1"/>
  <variable name="X(60,62,3299)" index="1547150" value="1"/>
  <variable name="X(60,135,2776)" index="1550606" value="1"/>
  <variable name="X(61,16,1918)" index="1553727" value="1"/>
  <variable name="X(61,26,2629)" index="1558417" value="1"/>
  <variable name="X(61,30,3640)" index="1563407" value="1"/>
  <variable name="X(61,37,1406)" index="1565152" value="1"/>
  <variable name="X(61,47,785)" index="1568510" value="1"/>
  <variable name="X(61,49,482)" index="1572186" value="1"/>
  <variable name="X(61,136,2362)" index="1578045" value="1"/>
  <variable name="X(62,27,3447)" index="1583109" value="1"/>
  <variable name="X(62,32,3299)" index="1586940" value="1"/>
  <variable name="X(62,60,2776)" index="1590396" value="1"/>
  <variable name="X(62,137,2363)" index="1593962" value="1"/>
  <variable name="X(63,3,3962)" index="1599540" value="1"/>
  <variable name="X(63,53,161)" index="1599718" value="1"/>
  <variable name="X(63,59,19)" index="1603555" value="1"/>
  <variable name="X(63,64,1895)" index="1609410" value="1"/>
  <variable name="X(63,71,448)" index="1611942" value="1"/>
  <variable name="X(63,138,2842)" index="1618315" value="1"/>
  <variable name="X(64,1,1895)" index="1621347" value="1"/>
  <variable name="X(64,63,19)" index="1623450" value="1"/>
  <variable name="X(64,139,3010)" index="1630420" value="1"/>
  <variable name="X(65,33,3640)" index="1635029" value="1"/>
  <variable name="X(65,53,3716)" index="1639084" value="1"/>
  <variable name="X(65,66,3447)" index="1642794" value="1"/>
  <variable name="X(65,67,161)" index="1643487" value="1"/>
  <variable name="X(65,68,1891)" index="1649196" value="1"/>
  <variable name="X(65,140,687)" index="1651971" value="1"/>
  <variable name="X(66,65,3640)" index="1658903" value="1"/>
  <variable name="X(66,67,3632)" index="1662874" value="1"/>
  <variable name="X(66,141,2958)" index="1666179" value="1"/>
  <variable name="X(67,11,3632)" index="1670832" value="1"/>
  <variable name="X(67,65,3716)" index="1674895" value="1"/>
  <variable name="X(67,66,2958)" index="1678116" value="1"/>
  <variable name="X(67,68,62)" index="1679199" value="1"/>
  <variable name="X(67,142,3791)" index="1686907" value="1"/>
  <variable name="X(68,12,3779)" index="1690874" value="1"/>
  <variable name="X(68,65,687)" index="1691761" value="1"/>
  <variable name="X(68,67,3791)" index="1698844" value="1"/>
  <variable name="X(68,143,1891)" index="1700923" value="1"/>
  <variable name="X(69,13,2240)" index="1705251" value="1"/>
  <variable name="X(69,16,1848)" index="1708838" value="1"/>
  <variable name="X(69,28,742)" index="1711711" value="1"/>
  <variable name="X(69,35,1989)" index="1716937" value="1"/>
  <variable name="X(69,47,802)" index="1719729" value="1"/>
  <variable name="X(69,144,2422)" index="1725328" value="1"/>
  <variable name="X(70,59,3866)" index="1730751" value="1"/>
  <variable name="X(70,71,3917)" index="1734781" value="1"/>
  <variable name="X(70,145,2309)" index="1737152" value="1"/>
  <variable name="X(71,63,3962)" index="1742784" value="1"/>
  <variable name="X(71,70,3979)" index="1746780" value="1"/>
  <variable name="X(71,146,448)" index="1747228" value="1"/>
 </variables>
</CPLEXSolution>
